GLPSOL--GLPK LP/MIP Solver 5.0
Parameter(s) specified in the command line:
 --lp ../modeles/10_419.lp --log 10_419.log
Reading problem data from '../modeles/10_419.lp'...
4231 rows, 8400 columns, 29380 non-zeros
4190 integer variables, all of which are binary
12647 lines were read
GLPK Integer Optimizer 5.0
4231 rows, 8400 columns, 29380 non-zeros
4190 integer variables, all of which are binary
Preprocessing...
4140 constraint coefficient(s) were reduced
4231 rows, 8390 columns, 29370 non-zeros
4190 integer variables, all of which are binary
Scaling...
 A: min|aij| =  2.278e-05  max|aij| =  4.000e+00  ratio =  1.756e+05
GM: min|aij| =  4.885e-02  max|aij| =  2.047e+01  ratio =  4.190e+02
EQ: min|aij| =  2.387e-03  max|aij| =  1.000e+00  ratio =  4.190e+02
2N: min|aij| =  1.953e-03  max|aij| =  1.769e+00  ratio =  9.059e+02
Constructing initial basis...
Size of triangular part is 4231
Solving LP relaxation...
GLPK Simplex Optimizer 5.0
4231 rows, 8390 columns, 29370 non-zeros
      0: obj =   2.000000000e+01 inf =   4.950e+01 (21)
Perturbing LP to avoid stalling [199]...
    229: obj =   4.998889269e-01 inf =   0.000e+00 (0)
Removing LP perturbation [660]...
*   660: obj =  -3.161938598e+00 inf =   1.337e-14 (0)
OPTIMAL LP SOLUTION FOUND
Integer optimization begins...
Long-step dual simplex will be used
+   660: mip =     not found yet >=              -inf        (1; 0)
+   864: >>>>>  -3.161938598e+00 >=  -3.161938598e+00   0.0% (204; 0)
+   864: mip =  -3.161938598e+00 >=     tree is empty   0.0% (0; 407)
INTEGER OPTIMAL SOLUTION FOUND
Time used:   1.6 secs
Memory used: 12.2 Mb (12838530 bytes)
